Version identifier: 12.10.0.0 | 2019-11-26 | 843d4de
CPXPARAM_WorkMem                                 28672
Tried aggregator 2 times.
MIP Presolve modified 10 coefficients.
Aggregator did 45 substitutions.
Reduced MIP has 245 rows, 300 columns, and 1130 nonzeros.
Reduced MIP has 300 binaries, 0 generals, 0 SOSs, and 0 indicators.
Presolve time = 0,00 sec. (1,12 ticks)
Found incumbent of value 1060,000000 after 0,01 sec. (2,06 ticks)
Probing time = 0,00 sec. (0,43 ticks)
Tried aggregator 1 time.
Detecting symmetries...
MIP Presolve eliminated 60 rows and 0 columns.
MIP Presolve added 120 rows and 0 columns.
Reduced MIP has 305 rows, 300 columns, and 1190 nonzeros.
Reduced MIP has 300 binaries, 0 generals, 0 SOSs, and 0 indicators.
Presolve time = 0,00 sec. (1,40 ticks)
Probing time = 0,00 sec. (0,42 ticks)
Clique table members: 769.
MIP emphasis: balance optimality and feasibility.
MIP search method: dynamic search.
Parallel mode: deterministic, using up to 16 threads.
Root relaxation solution time = 0,00 sec. (1,50 ticks)

        Nodes                                         Cuts/
   Node  Left     Objective  IInf  Best Integer    Best Bound    ItCnt     Gap

*     0+    0                         1060,0000        0,0000           100,00%
*     0+    0                          536,0000        0,0000           100,00%
*     0+    0                          499,0000        0,0000           100,00%
      0     0      212,0000   188      499,0000      212,0000      165   57,52%
      0     0      212,6188   188      499,0000     Cuts: 176      273   57,39%
      0     0      214,5817   188      499,0000     Cuts: 176      341   57,00%
      0     0      217,0746   188      499,0000     Cuts: 176      392   56,50%
      0     0      217,5744   188      499,0000      Cuts: 14      417   56,40%
      0     0      218,1280   188      499,0000      Cuts: 41      479   56,29%
      0     0      218,1638   188      499,0000     Cuts: 100      488   56,28%
      0     0      218,2100   188      499,0000      Fract: 1      505   56,27%
      0     0      218,3640   188      499,0000      Fract: 2      534   56,24%
      0     0      218,4387   188      499,0000     Cuts: 115      547   56,22%
*     0+    0                          436,0000      218,4387            49,90%
      0     2      218,4387   239      436,0000      241,3256      547   44,65%
Elapsed time = 0,16 sec. (90,16 ticks, tree = 0,02 MB, solutions = 4)
   3453  2245      428,5507    66      436,0000      333,8289   111573   23,43%

Performing restart 1

Repeating presolve.
Tried aggregator 1 time.
Reduced MIP has 305 rows, 300 columns, and 1190 nonzeros.
Reduced MIP has 300 binaries, 0 generals, 0 SOSs, and 0 indicators.
Presolve time = 0,00 sec. (0,70 ticks)
Tried aggregator 1 time.
Reduced MIP has 305 rows, 300 columns, and 1190 nonzeros.
Reduced MIP has 300 binaries, 0 generals, 0 SOSs, and 0 indicators.
Presolve time = 0,00 sec. (0,99 ticks)
Represolve time = 0,01 sec. (6,64 ticks)
   4560     0      226,2858   239      436,0000      Cuts: 17   163655   20,80%
   4560     0      227,5529   239      436,0000      Cuts: 10   163691   20,80%
   4560     0      230,2620   239      436,0000      Cuts: 10   163749   20,80%
   4560     0      232,6375   239      436,0000      Cuts: 10   163809   20,80%
   4560     0      234,6580   239      436,0000      Cuts: 11   163865   20,80%
   4560     2      234,6580   298      436,0000      345,2953   163865   20,80%
   4572     8      281,9475   176      436,0000      345,2953   164757   20,80%
   6260  1243      400,6066   210      436,0000      345,2953   229504   20,80%
   7588  2009        cutoff            436,0000      345,2953   271846   20,80%
   9635  3511        cutoff            436,0000      345,2953   348363   20,80%

Performing restart 2

Repeating presolve.
Tried aggregator 1 time.
Reduced MIP has 305 rows, 300 columns, and 1190 nonzeros.
Reduced MIP has 300 binaries, 0 generals, 0 SOSs, and 0 indicators.
Presolve time = 0,00 sec. (0,70 ticks)
Tried aggregator 1 time.
Reduced MIP has 305 rows, 300 columns, and 1190 nonzeros.
Reduced MIP has 300 binaries, 0 generals, 0 SOSs, and 0 indicators.
Presolve time = 0,00 sec. (0,99 ticks)
Represolve time = 0,02 sec. (14,81 ticks)
  10263     0      239,6205   298      436,0000      Cuts: 11   383133   20,80%
  10263     0      241,9581   298      436,0000      Cuts: 11   383238   20,80%
  10263     0      243,5871   298      436,0000       Cuts: 8   383307   20,80%
  10263     0      243,9975   298      436,0000       Cuts: 7   383363   20,80%
  10263     0      244,7324   298      436,0000      Cuts: 11   383432   20,80%
  10263     0      244,8022   298      436,0000       Cuts: 2   383458   20,80%
  10263     0      244,8202   298      436,0000       Cuts: 2   383478   20,80%
  10263     2      244,8202   297      436,0000      345,2953   383478   20,80%
  12084  1162      426,5810    32      436,0000      345,2953   444523   20,80%
  13713  1957      414,9208    87      436,0000      345,2953   525472   20,80%
* 16992+ 3109                          428,0000      381,7394            10,81%

GUB cover cuts applied:  1
Clique cuts applied:  57
Cover cuts applied:  422
Flow cuts applied:  1
Mixed integer rounding cuts applied:  88
Zero-half cuts applied:  6
Lift and project cuts applied:  6
Gomory fractional cuts applied:  45

Root node processing (before b&c):
  Real time             =    0,15 sec. (89,80 ticks)
Parallel b&c, 16 threads:
  Real time             =    4,03 sec. (3394,80 ticks)
  Sync time (average)   =    1,01 sec.
  Wait time (average)   =    0,01 sec.
                          ------------
Total (root+branch&cut) =    4,18 sec. (3484,60 ticks)
